     Program PWSCF v.7.3.1 starts on 19Dec2024 at 20:31:10

     Waiting for input...
     Reading input from standard input

     Current dimensions of program PWSCF are:
     Max number of different atomic species (ntypx) = 10
     Max number of k-points (npk) =  40000
     Max angular momentum in pseudopotentials (lmaxx) =  4

     Using Slab Decomposition

     bravais-lattice index     =            2
     lattice parameter (alat)  =      10.2600  a.u.
     unit-cell volume          =     270.0114 (a.u.)^3
     number of atoms/cell      =            2
     number of atomic types    =            1
     number of electrons       =         8.00
     number of Kohn-Sham states=            4
     kinetic-energy cutoff     =      40.0000  Ry
     charge density cutoff     =     160.0000  Ry
     scf convergence threshold =      1.0E-09
     mixing beta               =       0.4000
     number of iterations used =            8  plain     mixing
     energy convergence thresh.=      1.0E-04
     force convergence thresh. =      1.0E-04
     Exchange-correlation= PBESOL
                           (   1   4  10   8   0   0   0)
     nstep                     =           50

     celldm(1)=  10.260000  celldm(2)=   0.000000  celldm(3)=   0.000000
     celldm(4)=   0.000000  celldm(5)=   0.000000  celldm(6)=   0.000000

     crystal axes: (cart. coord. in units of alat)
               a(1) = (  -0.500000   0.000000   0.500000 )
               a(2) = (   0.000000   0.500000   0.500000 )
               a(3) = (  -0.500000   0.500000   0.000000 )

     reciprocal axes: (cart. coord. in units 2 pi/alat)
               b(1) = ( -1.000000 -1.000000  1.000000 )
               b(2) = (  1.000000  1.000000  1.000000 )
               b(3) = ( -1.000000  1.000000 -1.000000 )

     PseudoPot. # 1 for Si read from file:
     ./Si_pbesol.upf
     MD5 check sum: fe77d7a5829557c21112a27752452c0f
     Pseudo is Ultrasoft + core correction, Zval =  4.0
     Generated using "atomic" code by A. Dal Corso  v.5.0.2 svn rev. 9415
     Using radial grid of 1141 points,  4 beta functions with:
                l(1) =   0
                l(2) =   0
                l(3) =   1
                l(4) =   1
     Q(r) pseudized with 0 coefficients

     atomic species   valence    mass     pseudopotential
     Si                4.00    28.08550     Si( 1.00)

      6 Sym. Ops. (no inversion) found

                                    s                        frac. trans.

      isym =  1     identity

 cryst.   s( 1) = (     1          0          0      )
                  (     0          1          0      )
                  (     0          0          1      )

 cart.    s( 1) = (  1.0000000  0.0000000  0.0000000 )
                  (  0.0000000  1.0000000  0.0000000 )
                  (  0.0000000  0.0000000  1.0000000 )

      isym =  2     120 deg rotation - cart. axis [-1,-1,-1]

[...]

      isym =  3     120 deg rotation - cart. axis [1,1,1]

[...]

      isym =  4     inv. 180 deg rotation - cart. axis [1,-1,0]

[...]

      isym =  6     inv. 180 deg rotation - cart. axis [0,1,-1]

 cryst.   s( 6) = (     0          0          1      )
                  (     0          1          0      )
                  (     1          0          0      )

 cart.    s( 6) = (  1.0000000  0.0000000  0.0000000 )
                  (  0.0000000  0.0000000  1.0000000 )
                  (  0.0000000  1.0000000  0.0000000 )

     point group C_3v (3m)
     there are  3 classes
     the character table:

       E     2C3   3s_v
A_1    1.00  1.00  1.00
A_2    1.00  1.00 -1.00
E      2.00 -1.00  0.00

     the symmetry operations in each class and the name of the first element:

     E        1
          identity
     2C3      2    3
          120 deg rotation - cart. axis [-1,-1,-1]
     3s_v     4    5    6
          inv. 180 deg rotation - cart. axis [1,-1,0]

   Cartesian axes

     site n.     atom                  positions (alat units)
         1        Si     tau(   1) = (   0.0000000   0.0000000   0.0000000  )
         2        Si     tau(   2) = (   0.2506742   0.2506742   0.2506742  )

   Crystallographic axes

     site n.     atom                  positions (cryst. coord.)
         1        Si     tau(   1) = (  0.0000000  0.0000000  0.0000000  )
         2        Si     tau(   2) = ( -0.2506742  0.7520226 -0.2506742  )

     number of k points=   116
                       cart. coord. in units 2pi/alat
        k(    1) = (   0.0000000   0.0000000   0.0000000), wk =   0.0020000
        k(    2) = (  -0.1000000   0.1000000  -0.1000000), wk =   0.0120000
        k(    3) = (  -0.2000000   0.2000000  -0.2000000), wk =   0.0120000
        k(    4) = (  -0.3000000   0.3000000  -0.3000000), wk =   0.0120000
        k(    5) = (  -0.4000000   0.4000000  -0.4000000), wk =   0.0120000
        k(    6) = (   0.5000000  -0.5000000   0.5000000), wk =   0.0060000
        k(    7) = (   0.0000000   0.2000000   0.0000000), wk =   0.0120000
        k(    8) = (  -0.1000000   0.3000000  -0.1000000), wk =   0.0120000
        k(    9) = (  -0.2000000   0.4000000  -0.2000000), wk =   0.0120000
        k(   10) = (  -0.3000000   0.5000000  -0.3000000), wk =   0.0120000
        k(   11) = (   0.6000000  -0.4000000   0.6000000), wk =   0.0120000
        k(   12) = (   0.5000000  -0.3000000   0.5000000), wk =   0.0120000
        k(   13) = (   0.4000000  -0.2000000   0.4000000), wk =   0.0120000
        k(   14) = (   0.3000000  -0.1000000   0.3000000), wk =   0.0120000
        k(   15) = (   0.2000000   0.0000000   0.2000000), wk =   0.0120000
        k(   16) = (   0.0000000   0.4000000   0.0000000), wk =   0.0120000
        k(   17) = (  -0.1000000   0.5000000  -0.1000000), wk =   0.0120000
        k(   18) = (  -0.2000000   0.6000000  -0.2000000), wk =   0.0120000
        k(   19) = (   0.7000000  -0.3000000   0.7000000), wk =   0.0120000
        k(   20) = (   0.6000000  -0.2000000   0.6000000), wk =   0.0120000
        k(   21) = (   0.5000000  -0.1000000   0.5000000), wk =   0.0120000
        k(   22) = (   0.4000000   0.0000000   0.4000000), wk =   0.0120000
        k(   23) = (   0.0000000   0.6000000   0.0000000), wk =   0.0120000
        k(   24) = (  -0.1000000   0.7000000  -0.1000000), wk =   0.0120000
        k(   25) = (   0.8000000  -0.2000000   0.8000000), wk =   0.0120000
        k(   26) = (   0.7000000  -0.1000000   0.7000000), wk =   0.0120000
        k(   27) = (   0.6000000  -0.0000000   0.6000000), wk =   0.0120000
        k(   28) = (   0.0000000   0.8000000   0.0000000), wk =   0.0120000
        k(   29) = (   0.9000000  -0.1000000   0.9000000), wk =   0.0120000
        k(   30) = (   0.8000000   0.0000000   0.8000000), wk =   0.0120000
        k(   31) = (   0.0000000  -1.0000000   0.0000000), wk =   0.0060000
        k(   32) = (  -0.2000000   0.4000000   0.0000000), wk =   0.0240000
        k(   33) = (  -0.3000000   0.5000000  -0.1000000), wk =   0.0240000
        k(   34) = (   0.6000000  -0.4000000   0.8000000), wk =   0.0240000
        k(   35) = (   0.5000000  -0.3000000   0.7000000), wk =   0.0240000
        k(   36) = (  -0.2000000   0.6000000   0.0000000), wk =   0.0240000
        k(   37) = (   0.7000000  -0.3000000   0.9000000), wk =   0.0240000
        k(   38) = (   0.6000000  -0.2000000   0.8000000), wk =   0.0240000
        k(   39) = (   0.5000000  -0.1000000   0.7000000), wk =   0.0240000
        k(   40) = (   0.4000000   0.0000000   0.6000000), wk =   0.0240000
        k(   41) = (   0.8000000  -0.2000000   1.0000000), wk =   0.0240000
        k(   42) = (   0.7000000  -0.1000000   0.9000000), wk =   0.0240000
        k(   43) = (   0.6000000   0.0000000   0.8000000), wk =   0.0240000
        k(   44) = (  -0.2000000  -1.0000000   0.0000000), wk =   0.0240000
        k(   45) = (   0.6000000  -0.2000000   1.0000000), wk =   0.0240000
        k(   46) = (   0.5000000  -0.1000000   0.9000000), wk =   0.0240000
        k(   47) = (  -0.4000000  -1.0000000   0.0000000), wk =   0.0240000
        k(   48) = (  -0.1000000  -0.1000000  -0.1000000), wk =   0.0040000
        k(   49) = (  -0.2000000  -0.2000000  -0.2000000), wk =   0.0040000
        k(   50) = (  -0.3000000  -0.3000000  -0.3000000), wk =   0.0040000
        k(   51) = (  -0.4000000  -0.4000000  -0.4000000), wk =   0.0040000
        k(   52) = (   0.5000000   0.5000000   0.5000000), wk =   0.0020000
        k(   53) = (   0.3000000   0.1000000  -0.1000000), wk =   0.0240000
        k(   54) = (  -0.3000000  -0.1000000  -0.1000000), wk =   0.0120000
        k(   55) = (   0.4000000   0.2000000  -0.2000000), wk =   0.0240000
        k(   56) = (  -0.4000000  -0.2000000  -0.2000000), wk =   0.0120000
        k(   57) = (   0.5000000   0.3000000  -0.3000000), wk =   0.0240000
        k(   58) = (  -0.5000000  -0.3000000  -0.3000000), wk =   0.0120000
        k(   59) = (  -0.4000000  -0.6000000   0.6000000), wk =   0.0240000
        k(   60) = (   0.4000000   0.6000000   0.6000000), wk =   0.0120000
[...]
        k(  102) = (  -0.2000000  -0.6000000   0.8000000), wk =   0.0240000
        k(  103) = (   0.2000000   0.6000000   0.8000000), wk =   0.0240000
        k(  104) = (  -0.8000000  -0.2000000   0.6000000), wk =   0.0240000
        k(  105) = (  -0.1000000  -0.5000000   0.7000000), wk =   0.0240000
        k(  106) = (   0.1000000   0.5000000   0.7000000), wk =   0.0240000
        k(  107) = (  -0.7000000  -0.1000000   0.5000000), wk =   0.0240000
        k(  108) = (   0.0000000  -0.4000000   0.6000000), wk =   0.0240000
        k(  109) = (  -0.2000000  -0.8000000   1.0000000), wk =   0.0240000
        k(  110) = (  -0.1000000  -0.7000000   0.9000000), wk =   0.0240000
        k(  111) = (   0.1000000   0.7000000   0.9000000), wk =   0.0240000
        k(  112) = (  -0.9000000  -0.1000000   0.7000000), wk =   0.0240000
        k(  113) = (   0.0000000  -0.6000000   0.8000000), wk =   0.0240000
        k(  114) = (  -0.2000000  -0.6000000   1.0000000), wk =   0.0240000
        k(  115) = (   0.1000000   0.5000000   0.9000000), wk =   0.0120000
        k(  116) = (  -0.9000000  -0.1000000   0.5000000), wk =   0.0120000

                       cryst. coord.
        k(    1) = (   0.0000000   0.0000000   0.0000000), wk =   0.0020000
        k(    2) = (   0.0000000   0.0000000   0.1000000), wk =   0.0120000
        k(    3) = (   0.0000000   0.0000000   0.2000000), wk =   0.0120000
        k(    4) = (   0.0000000   0.0000000   0.3000000), wk =   0.0120000
        k(    5) = (   0.0000000   0.0000000   0.4000000), wk =   0.0120000
        k(    6) = (   0.0000000   0.0000000  -0.5000000), wk =   0.0060000
        k(    7) = (   0.0000000   0.1000000   0.1000000), wk =   0.0120000
        k(    8) = (   0.0000000   0.1000000   0.2000000), wk =   0.0120000
        k(    9) = (   0.0000000   0.1000000   0.3000000), wk =   0.0120000
        k(   10) = (   0.0000000   0.1000000   0.4000000), wk =   0.0120000
        k(   11) = (   0.0000000   0.1000000  -0.5000000), wk =   0.0120000
        k(   12) = (   0.0000000   0.1000000  -0.4000000), wk =   0.0120000
        k(   13) = (   0.0000000   0.1000000  -0.3000000), wk =   0.0120000
        k(   14) = (   0.0000000   0.1000000  -0.2000000), wk =   0.0120000
        k(   15) = (   0.0000000   0.1000000  -0.1000000), wk =   0.0120000
        k(   16) = (   0.0000000   0.2000000   0.2000000), wk =   0.0120000
        k(   17) = (   0.0000000   0.2000000   0.3000000), wk =   0.0120000
        k(   18) = (   0.0000000   0.2000000   0.4000000), wk =   0.0120000
        k(   19) = (   0.0000000   0.2000000  -0.5000000), wk =   0.0120000
        k(   20) = (   0.0000000   0.2000000  -0.4000000), wk =   0.0120000
        k(   21) = (   0.0000000   0.2000000  -0.3000000), wk =   0.0120000
        k(   22) = (   0.0000000   0.2000000  -0.2000000), wk =   0.0120000
        k(   23) = (   0.0000000   0.3000000   0.3000000), wk =   0.0120000
        k(   24) = (   0.0000000   0.3000000   0.4000000), wk =   0.0120000
        k(   25) = (   0.0000000   0.3000000  -0.5000000), wk =   0.0120000
        k(   26) = (   0.0000000   0.3000000  -0.4000000), wk =   0.0120000
        k(   27) = (   0.0000000   0.3000000  -0.3000000), wk =   0.0120000
        k(   28) = (   0.0000000   0.4000000   0.4000000), wk =   0.0120000
        k(   29) = (   0.0000000   0.4000000  -0.5000000), wk =   0.0120000
        k(   30) = (   0.0000000   0.4000000  -0.4000000), wk =   0.0120000
        k(   31) = (   0.0000000  -0.5000000  -0.5000000), wk =   0.0060000
        k(   32) = (   0.1000000   0.2000000   0.3000000), wk =   0.0240000
        k(   33) = (   0.1000000   0.2000000   0.4000000), wk =   0.0240000
        k(   34) = (   0.1000000   0.2000000  -0.5000000), wk =   0.0240000
        k(   35) = (   0.1000000   0.2000000  -0.4000000), wk =   0.0240000
        k(   36) = (   0.1000000   0.3000000   0.4000000), wk =   0.0240000
        k(   37) = (   0.1000000   0.3000000  -0.5000000), wk =   0.0240000
        k(   38) = (   0.1000000   0.3000000  -0.4000000), wk =   0.0240000
        k(   39) = (   0.1000000   0.3000000  -0.3000000), wk =   0.0240000
        k(   40) = (   0.1000000   0.3000000  -0.2000000), wk =   0.0240000
        k(   41) = (   0.1000000   0.4000000  -0.5000000), wk =   0.0240000
        k(   42) = (   0.1000000   0.4000000  -0.4000000), wk =   0.0240000
        k(   43) = (   0.1000000   0.4000000  -0.3000000), wk =   0.0240000
        k(   44) = (   0.1000000  -0.5000000  -0.4000000), wk =   0.0240000
        k(   45) = (   0.2000000   0.4000000  -0.4000000), wk =   0.0240000
        k(   46) = (   0.2000000   0.4000000  -0.3000000), wk =   0.0240000
        k(   47) = (   0.2000000  -0.5000000  -0.3000000), wk =   0.0240000
        k(   48) = (   0.0000000  -0.1000000   0.0000000), wk =   0.0040000
        k(   49) = (   0.0000000  -0.2000000   0.0000000), wk =   0.0040000
        k(   50) = (   0.0000000  -0.3000000   0.0000000), wk =   0.0040000
        k(   51) = (   0.0000000  -0.4000000   0.0000000), wk =   0.0040000
        k(   52) = (   0.0000000   0.5000000   0.0000000), wk =   0.0020000
        k(   53) = (  -0.2000000   0.0000000  -0.1000000), wk =   0.0240000
        k(   54) = (   0.1000000  -0.1000000   0.1000000), wk =   0.0120000
        k(   55) = (  -0.3000000   0.0000000  -0.1000000), wk =   0.0240000
        k(   56) = (   0.1000000  -0.2000000   0.1000000), wk =   0.0120000
        k(   57) = (  -0.4000000   0.0000000  -0.1000000), wk =   0.0240000
        k(   58) = (   0.1000000  -0.3000000   0.1000000), wk =   0.0120000
        k(   59) = (   0.5000000   0.0000000  -0.1000000), wk =   0.0240000
        k(   60) = (   0.1000000   0.6000000   0.1000000), wk =   0.0120000
[...]
        k(  102) = (   0.5000000   0.1000000  -0.2000000), wk =   0.0240000
        k(  103) = (   0.3000000   0.7000000   0.2000000), wk =   0.0240000
        k(  104) = (   0.7000000   0.2000000   0.3000000), wk =   0.0240000
        k(  105) = (   0.4000000   0.1000000  -0.2000000), wk =   0.0240000
        k(  106) = (   0.3000000   0.6000000   0.2000000), wk =   0.0240000
        k(  107) = (   0.6000000   0.2000000   0.3000000), wk =   0.0240000
        k(  108) = (   0.3000000   0.1000000  -0.2000000), wk =   0.0240000
        k(  109) = (   0.6000000   0.1000000  -0.3000000), wk =   0.0240000
        k(  110) = (   0.5000000   0.1000000  -0.3000000), wk =   0.0240000
        k(  111) = (   0.4000000   0.8000000   0.3000000), wk =   0.0240000
        k(  112) = (   0.8000000   0.3000000   0.4000000), wk =   0.0240000
        k(  113) = (   0.4000000   0.1000000  -0.3000000), wk =   0.0240000
        k(  114) = (   0.6000000   0.2000000  -0.2000000), wk =   0.0240000
        k(  115) = (   0.4000000   0.7000000   0.2000000), wk =   0.0120000
        k(  116) = (   0.7000000   0.2000000   0.4000000), wk =   0.0120000

     Check: negative core charge=   -0.000003

     Initial potential from superposition of free atoms

     starting charge       7.9989, renormalised to       8.0000
     Starting wfcs are    8 randomized atomic wfcs

     Self-consistent Calculation

     iteration #  1     ecut=    40.00 Ry     beta= 0.40
     Davidson diagonalization with overlap

     ethr =  1.00E-02,  avg # of iterations =  2.0

     Threshold (ethr) on eigenvalues was too large:
     Diagonalizing with lowered threshold

     Davidson diagonalization with overlap

[...]

     total energy              =     -22.67501141 Ry
     estimated scf accuracy    <       0.05396002 Ry

[...]

     End of self-consistent calculation

          k = 0.0000 0.0000 0.0000 (  1139 PWs)   bands (ev):

    -5.8231   6.1535   6.1535   6.2063

     occupation numbers
     1.0000   1.0000   1.0000   1.0000

          k =-0.1000 0.1000-0.1000 (  1179 PWs)   bands (ev):

[...]

     highest occupied level (ev):     6.2063

!    total energy              =     -22.67301617 Ry
     estimated scf accuracy    <          7.3E-10 Ry

     The total energy is the sum of the following terms:
     one-electron contribution =       5.13729871 Ry
     hartree contribution      =       1.07640938 Ry
     xc contribution           =     -12.08582999 Ry
     ewald contribution        =     -16.80089427 Ry

     convergence has been achieved in   9 iterations

     Forces acting on atoms (cartesian axes, Ry/au):

     atom    1 type  1   force =     0.00188555    0.00188555    0.00188555
     atom    2 type  1   force =    -0.00188555   -0.00188555   -0.00188555
     The non-local contrib.  to forces
     atom    1 type  1   force =     0.00200149    0.00200149    0.00200149
     atom    2 type  1   force =    -0.00200074   -0.00200074   -0.00200074
     The ionic contribution  to forces
     atom    1 type  1   force =     0.00339154    0.00339154    0.00339154
     atom    2 type  1   force =    -0.00339154   -0.00339154   -0.00339154
     The local contribution  to forces
     atom    1 type  1   force =    -0.00332094   -0.00332094   -0.00332094
     atom    2 type  1   force =     0.00332017    0.00332017    0.00332017
     The core correction contribution to forces
     atom    1 type  1   force =    -0.00018872   -0.00018872   -0.00018872
     atom    2 type  1   force =     0.00018550    0.00018550    0.00018550
     The Hubbard contrib.    to forces
     atom    1 type  1   force =     0.00000000    0.00000000    0.00000000
     atom    2 type  1   force =     0.00000000    0.00000000    0.00000000
     The SCF correction term to forces
     atom    1 type  1   force =     0.00000046    0.00000046    0.00000046
     atom    2 type  1   force =    -0.00000066   -0.00000066   -0.00000066

     Total force =     0.004619     Total SCF correction =     0.000001

     BFGS Geometry Optimization
     Energy error            =      0.0E+00 Ry
     Gradient error          =      1.9E-03 Ry/Bohr

     number of scf cycles    =   1
     number of bfgs steps    =   0

     energy             new  =     -22.6730161721 Ry

     new trust radius        =       0.0032658752 bohr
     new conv_thr            =       0.0000000010 Ry

ATOMIC_POSITIONS (angstrom)
Si               0.0009977922        0.0009977922        0.0009977922
Si               1.3600022078        1.3600022078        1.3600022078

     Writing config-only to output data dir ./silicon.save/ :
     XML data file
     NEW-OLD atomic charge density approx. for the potential

[...]

     Total force =     0.002120     Total SCF correction =     0.000001
     Energy error            =      1.6E-05 Ry
     Gradient error          =      8.7E-04 Ry/Bohr

     number of scf cycles    =   2
     number of bfgs steps    =   1

     energy             old  =     -22.6730161721 Ry
     energy             new  =     -22.6730317349 Ry

     CASE: energy            _new < energy            _old

     new trust radius        =       0.0027713845 bohr
     new conv_thr            =            1.0E-11 Ry

ATOMIC_POSITIONS (angstrom)
Si               0.0018445072        0.0018445072        0.0018445072
Si               1.3591554928        1.3591554928        1.3591554928

     Writing config-only to output data dir ./silicon.save/ :
     XML data file
     NEW-OLD atomic charge density approx. for the potential

     Check: negative core charge=   -0.000003

     Self-consistent Calculation

[...]

     Threshold (ethr) on eigenvalues was too large:
     Diagonalizing with lowered threshold

     Davidson diagonalization with overlap

[...]

     total energy              =     -22.67303584 Ry
     estimated scf accuracy    <          1.3E-11 Ry

     iteration #  7     ecut=    40.00 Ry     beta= 0.40
     Davidson diagonalization with overlap

     ethr =  1.56E-13,  avg # of iterations =  1.1

     End of self-consistent calculation

[...]

          k = 0.1000 0.5000 0.9000 (  1148 PWs)   bands (ev):

[...]

          k =-0.9000-0.1000 0.5000 (  1148 PWs)   bands (ev):

    -2.1365  -0.9102   1.9752   2.8812

     occupation numbers
     1.0000   1.0000   1.0000   1.0000

     highest occupied level (ev):     6.1711

!    total energy              =     -22.67303584 Ry
     estimated scf accuracy    <          1.3E-12 Ry

     The total energy is the sum of the following terms:
     one-electron contribution =       5.13730008 Ry
     hartree contribution      =       1.07643676 Ry
     xc contribution           =     -12.08584307 Ry
     ewald contribution        =     -16.80092960 Ry

     convergence has been achieved in   7 iterations

     Forces acting on atoms (cartesian axes, Ry/au):

     atom    1 type  1   force =    -0.00001102   -0.00001102   -0.00001102
     atom    2 type  1   force =     0.00001102    0.00001102    0.00001102
     The non-local contrib.  to forces
     atom    1 type  1   force =    -0.00001255   -0.00001255   -0.00001255
     atom    2 type  1   force =     0.00001646    0.00001646    0.00001646
     The ionic contribution  to forces
     atom    1 type  1   force =    -0.00002680   -0.00002680   -0.00002680
     atom    2 type  1   force =     0.00002680    0.00002680    0.00002680
     The local contribution  to forces
     atom    1 type  1   force =     0.00002387    0.00002387    0.00002387
     atom    2 type  1   force =    -0.00002651   -0.00002651   -0.00002651
     The core correction contribution to forces
     atom    1 type  1   force =     0.00000634    0.00000634    0.00000634
     atom    2 type  1   force =    -0.00000401   -0.00000401   -0.00000401
     The Hubbard contrib.    to forces
     atom    1 type  1   force =     0.00000000    0.00000000    0.00000000
     atom    2 type  1   force =     0.00000000    0.00000000    0.00000000
     The SCF correction term to forces
     atom    1 type  1   force =    -0.00000008   -0.00000008   -0.00000008
     atom    2 type  1   force =     0.00000008    0.00000008    0.00000008

     Total force =     0.000027     Total SCF correction =     0.000000
     Energy error            =      4.1E-06 Ry
     Gradient error          =      1.1E-05 Ry/Bohr

     bfgs converged in   3 scf cycles and   2 bfgs steps
     (criteria: energy <  1.0E-04 Ry, force <  1.0E-04 Ry/Bohr)

     End of BFGS Geometry Optimization

     Final energy             =     -22.6730358353 Ry

     File ./silicon.bfgs deleted, as requested
Begin final coordinates

ATOMIC_POSITIONS (angstrom)
Si               0.0018445072        0.0018445072        0.0018445072
Si               1.3591554928        1.3591554928        1.3591554928
End final coordinates

     Writing all to output data dir ./silicon.save/ :
     XML data file, charge density, pseudopotentials, collected wavefunctions

     General routines

   This run was terminated on:  20:31:36  19Dec2024

   JOB DONE.